543 5
10 10 10 10 10 

0 0 0 0 0 0 5 2 14 26 38 50 
0 0 0 0 0 0 2 3 4 
9 0 1 0 0 0 2 6 5 
3 0 4 0 0 0 2 6 5 
8 0 4 0 0 0 1 7 
2 0 1 0 0 0 1 7 
4 0 1 0 0 0 1 8 
5 0 2 0 0 0 2 9 541 
10 0 5 0 0 0 2 11 10 
6 0 1 0 0 0 1 12 
8 0 3 0 0 0 1 12 
4 0 3 0 0 0 1 13 
0 0 0 0 0 0 1 62 
0 0 0 0 0 0 2 15 312 
8 1 0 0 0 0 1 16 
1 5 0 0 0 0 2 19 17 
2 3 0 0 0 0 1 18 
2 2 0 0 0 0 2 21 20 
4 3 0 0 0 0 2 21 20 
3 3 0 0 0 0 2 23 22 
2 1 0 0 0 0 2 23 22 
1 1 0 0 0 0 1 24 
1 3 0 0 0 0 1 24 
7 3 0 0 0 0 1 25 
0 0 0 0 0 0 1 62 
0 0 0 0 0 0 1 27 
3 0 1 0 0 0 1 28 
5 0 2 0 0 0 2 30 29 
9 0 5 0 0 0 1 31 
9 0 2 0 0 0 1 31 
5 0 5 0 0 0 2 33 32 
8 0 3 0 0 0 2 36 34 
2 0 2 0 0 0 2 36 34 
8 0 3 0 0 0 1 35 
2 0 1 0 0 0 2 37 465 
10 0 1 0 0 0 1 37 
0 0 0 0 0 0 1 62 
0 0 0 0 0 0 4 39 43 46 48 
9 0 0 0 0 1 1 40 
6 0 0 0 0 4 1 41 
7 0 0 0 0 2 1 42 
10 0 0 0 0 3 1 44 
7 0 0 0 0 2 1 44 
8 0 0 0 0 3 1 45 
5 0 0 0 0 2 2 47 425 
6 0 0 0 0 2 1 47 
1 0 0 0 0 3 1 49 
6 0 0 0 0 3 1 49 
0 0 0 0 0 0 1 62 
0 0 0 0 0 0 2 51 57 
3 0 0 0 1 0 1 52 
8 0 0 0 3 0 2 60 53 
10 0 0 0 2 0 1 54 
2 0 0 0 5 0 2 59 55 
3 0 0 0 3 0 1 56 
9 0 0 0 1 0 2 58 262 
9 0 0 0 3 0 1 58 
2 0 0 0 3 0 1 61 
1 0 0 0 1 0 1 61 
6 0 0 0 3 0 1 61 
0 0 0 0 0 0 1 62 
0 0 0 0 0 0 5 63 105 147 189 231 
0 0 0 0 0 0 3 64 77 84 
5 1 0 1 1 1 1 65 
10 4 0 1 3 2 1 66 
9 3 0 3 2 2 1 67 
10 3 0 5 2 3 1 68 
3 3 0 3 4 2 2 79 69 
3 3 0 3 1 2 1 70 
4 1 0 2 4 3 1 71 
10 2 0 3 2 1 1 72 
4 3 0 4 3 3 1 73 
7 2 0 3 4 2 1 74 
10 5 0 1 3 2 2 103 75 
3 1 0 2 2 3 1 76 
1 3 0 2 4 1 2 102 78 
5 1 0 4 3 2 2 103 78 
4 1 0 3 4 4 2 94 80 
2 1 0 3 2 4 2 94 80 
10 2 0 3 2 2 2 101 81 
7 3 0 1 1 1 1 82 
1 3 0 3 2 4 1 83 
9 5 0 6 1 6 1 85 
4 3 0 1 1 5 1 85 
6 1 0 2 1 1 2 100 86 
6 1 0 2 3 3 3 99 98 87 
1 5 0 4 2 4 1 88 
8 3 0 2 1 2 1 89 
1 6 0 2 4 2 1 90 
9 2 0 1 2 2 1 91 
1 2 0 3 4 1 1 92 
5 3 0 1 3 1 1 93 
7 4 0 4 3 3 1 95 
6 2 0 3 6 3 1 95 
8 2 0 3 1 2 1 96 
1 1 0 2 3 3 1 97 
2 1 0 3 2 2 1 104 
10 2 0 2 4 1 1 104 
8 1 0 2 2 2 1 104 
1 1 0 3 2 1 1 104 
2 3 0 1 4 3 2 104 340 
3 4 0 1 1 3 1 104 
1 3 0 2 1 6 1 104 
0 0 0 0 0 0 1 543 
0 0 0 0 0 0 3 106 109 112 
3 1 0 1 1 1 1 107 
1 1 0 1 2 1 1 108 
6 2 0 1 2 5 1 110 
5 2 0 1 2 3 2 110 233 
5 2 0 3 4 3 1 111 
6 2 0 5 2 2 1 113 
9 6 0 1 3 5 1 113 
2 2 0 3 4 2 2 117 114 
5 2 0 3 2 3 1 115 
8 2 0 4 4 2 1 116 
3 3 0 4 2 3 1 118 
1 5 0 2 2 1 1 118 
10 3 0 6 1 4 1 119 
6 2 0 2 4 4 1 120 
7 3 0 2 3 2 1 121 
7 1 0 1 3 3 2 127 122 
2 2 0 1 1 4 2 131 123 
1 3 0 1 4 2 1 124 
10 1 0 4 2 1 2 145 125 
4 2 0 2 3 3 1 126 
2 3 0 3 2 2 1 128 
1 2 0 4 4 4 3 144 134 130 
3 3 0 1 2 1 1 129 
5 3 0 2 3 2 2 144 130 
7 2 0 3 2 6 3 143 142 132 
9 3 0 2 1 4 3 143 142 132 
8 5 0 3 2 2 1 133 
9 4 0 4 4 4 1 135 
2 2 0 2 3 3 1 135 
7 3 0 2 2 2 1 136 
3 1 0 2 2 1 1 137 
4 4 0 2 2 1 1 138 
8 3 0 1 3 2 1 139 
4 2 0 2 3 1 1 140 
5 2 0 2 2 1 1 141 
3 2 0 5 2 3 1 146 
1 1 0 3 3 2 1 146 
1 2 0 4 3 2 1 146 
3 3 0 1 2 2 1 146 
10 3 0 4 2 1 1 146 
0 0 0 0 0 0 1 543 
0 0 0 0 0 0 2 148 149 
9 1 0 1 1 1 2 152 150 
1 3 0 1 3 4 1 150 
8 4 0 1 1 3 1 151 
10 1 0 2 4 2 1 153 
9 3 0 1 3 3 1 153 
7 2 0 4 1 2 1 154 
10 4 0 3 6 2 1 155 
7 3 0 5 1 3 1 156 
9 1 0 2 2 5 2 159 157 
2 2 0 3 1 4 1 158 
5 1 0 2 3 2 1 160 
9 2 0 4 3 2 1 160 
10 2 0 2 5 3 1 161 
7 5 0 3 2 2 1 162 
2 4 0 3 4 2 1 163 
3 3 0 3 3 1 1 164 
9 2 0 4 3 2 3 168 166 165 
4 2 0 2 2 3 2 170 169 
1 2 0 1 4 2 1 167 
2 4 0 3 3 4 1 169 
2 2 0 2 1 1 1 170 
5 2 0 1 4 3 1 171 
9 4 0 2 1 3 1 171 
4 2 0 2 2 1 1 172 
1 4 0 2 2 2 2 175 173 
2 3 0 1 4 4 1 174 
8 3 0 2 2 4 2 177 176 
3 2 0 4 1 1 2 177 176 
3 1 0 2 5 1 2 180 178 
9 3 0 3 1 2 2 180 179 
9 3 0 3 1 3 1 179 
2 3 0 6 2 4 2 183 181 
6 3 0 4 3 2 2 183 182 
4 3 0 2 2 1 1 182 
7 2 0 5 1 1 1 184 
1 2 0 1 2 1 1 184 
9 2 0 2 3 4 1 185 
4 2 0 3 3 4 1 186 
5 2 0 2 4 1 2 187 238 
10 1 0 1 1 5 1 188 
0 0 0 0 0 0 1 543 
0 0 0 0 0 0 3 190 194 197 
2 1 0 1 1 1 1 191 
4 2 0 2 2 3 1 192 
1 1 0 3 1 4 1 193 
3 3 0 2 1 2 1 195 
8 2 0 2 1 1 1 195 
8 2 0 2 2 2 1 196 
9 2 0 2 1 2 2 201 198 
10 4 0 2 2 4 2 201 198 
5 3 0 3 3 2 1 199 
1 3 0 1 4 3 1 200 
8 4 0 1 3 4 1 202 
10 1 0 6 1 3 1 202 
8 1 0 3 6 1 1 203 
4 2 0 2 3 1 1 204 
9 2 0 1 3 3 1 205 
5 5 0 3 4 2 2 213 206 
6 2 0 4 4 6 2 215 207 
4 1 0 2 2 1 1 208 
1 2 0 3 3 2 2 229 209 
5 3 0 4 3 2 1 210 
1 2 0 3 1 2 1 211 
9 1 0 1 2 2 1 212 
2 1 0 2 2 3 2 228 214 
10 4 0 2 2 1 3 222 214 469 
2 6 0 4 3 1 3 227 226 216 
3 2 0 2 4 3 3 227 226 216 
7 1 0 3 1 1 1 217 
8 7 0 2 4 4 1 218 
10 1 0 2 1 2 1 219 
1 3 0 3 4 3 1 220 
8 3 0 3 3 4 1 221 
5 2 0 1 4 3 1 223 
6 3 0 2 1 4 1 223 
1 5 0 4 2 1 1 224 
6 1 0 2 3 3 1 225 
9 2 0 4 1 3 1 230 
4 3 0 1 3 2 1 230 
2 4 0 5 2 3 1 230 
6 1 0 1 5 3 1 230 
9 2 0 4 2 3 1 230 
0 0 0 0 0 0 1 543 
0 0 0 0 0 0 3 232 234 316 
10 0 0 1 0 0 2 236 233 
3 0 0 3 0 0 1 235 
1 0 0 4 0 0 1 235 
10 0 0 2 0 0 1 237 
1 0 0 3 0 0 1 237 
3 0 0 1 0 0 2 241 238 
2 0 0 1 0 0 1 239 
3 0 0 2 0 0 1 240 
10 0 0 5 0 0 1 242 
1 0 0 3 0 0 1 242 
0 0 0 0 0 0 5 243 275 307 319 351 
0 0 0 0 0 0 4 244 271 272 273 
6 1 1 1 0 0 2 270 245 
3 1 1 4 0 0 1 246 
2 4 3 3 0 0 2 269 247 
2 1 2 5 0 0 2 268 248 
2 2 3 2 0 0 2 267 249 
7 4 4 2 0 0 1 250 
9 1 2 1 0 0 1 251 
2 4 3 2 0 0 1 252 
4 3 5 1 0 0 1 253 
6 2 2 4 0 0 1 254 
2 1 4 3 0 0 1 255 
1 2 2 2 0 0 2 266 256 
5 2 2 4 0 0 1 257 
2 2 3 2 0 0 1 258 
9 2 5 3 0 0 1 259 
2 4 1 3 0 0 1 260 
2 2 2 1 0 0 2 261 503 
3 3 3 3 0 0 1 262 
4 3 1 2 0 0 1 263 
2 5 1 2 0 0 1 264 
9 2 3 1 0 0 1 265 
6 2 4 1 0 0 1 274 
9 2 2 3 0 0 1 274 
6 4 2 2 0 0 1 274 
5 3 3 1 0 0 1 274 
4 5 4 2 0 0 1 274 
4 4 2 6 0 0 1 274 
7 1 2 3 0 0 1 274 
3 1 1 2 0 0 1 274 
5 2 2 4 0 0 1 274 
0 0 0 0 0 0 1 543 
0 0 0 0 0 0 2 276 279 
9 1 0 1 0 1 2 277 341 
7 1 0 1 0 2 1 278 
10 2 0 2 0 3 2 281 280 
2 3 0 2 0 4 1 280 
7 2 0 4 0 1 1 282 
7 4 0 1 0 5 1 282 
10 4 0 3 0 1 2 286 283 
10 2 0 4 0 2 2 289 284 
3 1 0 2 0 1 1 285 
5 3 0 4 0 2 2 293 287 
3 3 0 4 0 2 2 289 287 
8 2 0 6 0 2 1 288 
9 1 0 3 0 1 2 295 290 
2 3 0 2 0 2 2 295 290 
3 3 0 4 0 2 1 291 
7 3 0 3 0 4 2 302 292 
6 2 0 3 0 6 2 300 294 
9 3 0 3 0 3 3 302 300 297 
2 2 0 3 0 2 1 296 
2 1 0 2 0 3 1 296 
5 2 0 1 0 3 1 297 
7 1 0 2 0 4 1 298 
8 6 0 1 0 2 1 299 
6 3 0 2 0 4 1 301 
7 4 0 1 0 3 1 301 
9 3 0 4 0 1 1 303 
8 1 0 2 0 1 1 303 
6 1 0 1 0 2 1 304 
9 3 0 2 0 5 1 305 
5 5 0 2 0 1 1 306 
0 0 0 0 0 0 1 543 
0 0 0 0 0 0 1 308 
4 1 0 0 0 0 2 311 309 
5 1 0 0 0 0 1 310 
1 4 0 0 0 0 2 314 312 
7 1 0 0 0 0 2 315 312 
9 3 0 0 0 0 1 313 
8 3 0 0 0 0 1 316 
9 4 0 0 0 0 2 316 513 
5 1 0 0 0 0 1 316 
9 4 0 0 0 0 1 317 
10 3 0 0 0 0 1 318 
0 0 0 0 0 0 5 383 405 427 439 461 
0 0 0 0 0 0 2 320 328 
7 0 0 1 1 1 1 321 
2 0 0 1 1 1 1 322 
3 0 0 2 5 3 1 323 
2 0 0 1 7 3 1 324 
2 0 0 3 4 4 2 331 325 
4 0 0 3 2 3 2 326 423 
6 0 0 5 3 5 1 327 
2 0 0 3 3 3 3 335 332 329 
7 0 0 3 5 2 1 329 
9 0 0 2 2 4 2 334 330 
5 0 0 2 2 3 3 338 337 333 
6 0 0 5 2 2 2 337 333 
8 0 0 2 2 2 2 337 336 
5 0 0 1 2 2 1 336 
10 0 0 3 3 3 1 336 
5 0 0 3 2 1 1 337 
10 0 0 3 2 3 1 339 
6 0 0 5 2 1 1 339 
10 0 0 3 2 3 1 339 
1 0 0 5 2 1 1 340 
1 0 0 1 2 4 1 341 
2 0 0 2 4 3 2 345 342 
10 0 0 1 2 1 1 343 
7 0 0 3 1 2 1 344 
2 0 0 3 1 1 1 346 
1 0 0 2 2 1 1 346 
7 0 0 1 3 2 1 347 
1 0 0 3 2 4 1 348 
9 0 0 1 1 2 1 349 
6 0 0 2 3 5 1 350 
0 0 0 0 0 0 1 543 
0 0 0 0 0 0 2 352 355 
10 0 1 1 1 0 1 353 
5 0 2 3 1 0 1 354 
8 0 5 1 2 0 2 357 356 
8 0 1 4 1 0 1 356 
5 0 2 2 2 0 1 358 
8 0 4 4 3 0 1 358 
7 0 2 3 1 0 2 362 359 
6 0 1 1 4 0 1 360 
5 0 3 3 1 0 2 364 361 
4 0 7 3 4 0 3 369 363 498 
4 0 2 2 2 0 2 364 363 
4 0 2 1 2 0 1 365 
8 0 2 1 4 0 1 365 
9 0 1 3 4 0 2 371 366 
4 0 1 2 4 0 1 367 
7 0 3 2 7 0 2 377 368 
8 0 1 2 2 0 2 376 370 
2 0 2 7 2 0 3 377 376 373 
9 0 3 3 2 0 1 372 
9 0 3 4 1 0 1 372 
1 0 3 1 2 0 1 373 
8 0 2 1 5 0 1 374 
5 0 1 5 4 0 1 375 
9 0 4 2 3 0 1 378 
2 0 3 1 2 0 1 378 
6 0 4 3 1 0 1 378 
5 0 4 3 3 0 1 379 
9 0 2 2 3 0 1 380 
2 0 3 2 1 0 1 381 
4 0 1 3 1 0 1 382 
0 0 0 0 0 0 1 543 
0 0 0 0 0 0 5 384 400 401 402 403 
10 0 0 0 1 1 1 385 
1 0 0 0 1 5 2 386 428 
2 0 0 0 2 6 1 387 
6 0 0 0 4 1 1 388 
8 0 0 0 5 1 1 389 
5 0 0 0 3 5 1 390 
5 0 0 0 2 2 2 399 391 
9 0 0 0 2 4 1 392 
2 0 0 0 4 2 1 393 
1 0 0 0 3 4 1 394 
3 0 0 0 3 1 1 395 
1 0 0 0 1 1 1 396 
4 0 0 0 3 3 1 397 
5 0 0 0 3 3 1 398 
10 0 0 0 1 2 1 404 
6 0 0 0 4 2 1 404 
6 0 0 0 1 3 1 404 
6 0 0 0 1 2 1 404 
1 0 0 0 5 1 1 404 
10 0 0 0 1 1 1 404 
0 0 0 0 0 0 1 543 
0 0 0 0 0 0 3 406 421 425 
10 0 0 0 1 1 2 416 407 
3 0 0 0 2 4 2 424 408 
6 0 0 0 3 2 1 409 
9 0 0 0 2 4 1 410 
6 0 0 0 3 2 1 411 
3 0 0 0 2 4 2 423 412 
10 0 0 0 1 4 1 413 
10 0 0 0 3 2 1 414 
7 0 0 0 3 3 1 415 
9 0 0 0 3 2 1 417 
7 0 0 0 3 2 1 417 
3 0 0 0 2 3 1 418 
6 0 0 0 4 2 1 419 
1 0 0 0 2 1 2 420 476 
7 0 0 0 2 3 1 422 
9 0 0 0 4 1 1 422 
5 0 0 0 2 4 1 426 
8 0 0 0 3 2 1 426 
3 0 0 0 1 1 1 426 
4 0 0 0 4 3 1 426 
0 0 0 0 0 0 1 543 
0 0 0 0 0 0 3 428 433 437 
5 0 0 1 0 0 1 429 
8 0 0 2 0 0 1 430 
3 0 0 2 0 0 1 431 
1 0 0 2 0 0 1 432 
9 0 0 5 0 0 2 436 434 
4 0 0 3 0 0 1 434 
4 0 0 3 0 0 2 435 455 
8 0 0 1 0 0 1 438 
9 0 0 2 0 0 1 438 
8 0 0 4 0 0 1 438 
0 0 0 0 0 0 5 483 495 507 519 531 
0 0 0 0 0 0 3 440 455 501 
9 0 1 0 1 0 3 459 447 441 
4 0 6 0 1 0 1 442 
6 0 1 0 3 0 1 443 
2 0 4 0 4 0 1 444 
10 0 3 0 3 0 1 445 
10 0 3 0 1 0 1 446 
9 0 1 0 4 0 2 458 448 
2 0 1 0 2 0 2 458 450 
2 0 2 0 1 0 1 449 
7 0 4 0 2 0 1 450 
4 0 5 0 2 0 2 457 451 
1 0 4 0 2 0 1 452 
10 0 1 0 3 0 1 453 
2 0 1 0 2 0 1 454 
2 0 2 0 5 0 1 456 
2 0 1 0 2 0 1 457 
6 0 2 0 3 0 1 460 
10 0 1 0 4 0 1 460 
6 0 3 0 3 0 1 460 
6 0 4 0 2 0 1 460 
0 0 0 0 0 0 1 543 
0 0 0 0 0 0 4 462 479 480 481 
2 0 1 0 0 1 1 463 
7 0 6 0 0 3 1 464 
8 0 1 0 0 3 2 478 465 
7 0 2 0 0 3 2 466 490 
7 0 4 0 0 2 1 467 
6 0 2 0 0 1 1 468 
4 0 1 0 0 2 1 469 
4 0 2 0 0 3 1 470 
1 0 1 0 0 3 2 477 471 
2 0 2 0 0 3 1 472 
10 0 2 0 0 3 1 473 
10 0 2 0 0 4 1 474 
10 0 3 0 0 3 1 475 
1 0 2 0 0 2 1 476 
8 0 5 0 0 4 1 482 
8 0 2 0 0 3 1 482 
5 0 3 0 0 2 1 482 
9 0 4 0 0 1 1 482 
4 0 1 0 0 1 1 482 
4 0 4 0 0 3 1 482 
0 0 0 0 0 0 1 543 
0 0 0 0 0 0 2 484 489 
10 0 0 0 1 0 2 493 485 
6 0 0 0 3 0 2 492 486 
3 0 0 0 1 0 1 487 
3 0 0 0 2 0 1 488 
10 0 0 0 3 0 1 490 
8 0 0 0 5 0 1 490 
3 0 0 0 3 0 2 491 497 
5 0 0 0 3 0 1 494 
8 0 0 0 2 0 1 494 
9 0 0 0 2 0 1 494 
0 0 0 0 0 0 1 543 
0 0 0 0 0 0 1 496 
6 0 0 0 0 1 1 497 
10 0 0 0 0 3 3 501 498 512 
4 0 0 0 0 4 1 499 
6 0 0 0 0 4 2 505 500 
7 0 0 0 0 2 2 504 502 
2 0 0 0 0 2 2 504 503 
6 0 0 0 0 1 1 503 
3 0 0 0 0 3 1 506 
3 0 0 0 0 3 1 506 
3 0 0 0 0 2 1 506 
0 0 0 0 0 0 1 543 
0 0 0 0 0 0 2 508 527 
7 0 0 0 1 0 3 512 510 509 
10 0 0 0 3 0 1 511 
7 0 0 0 4 0 1 511 
2 0 0 0 1 0 2 516 513 
2 0 0 0 2 0 2 516 513 
4 0 0 0 2 0 1 514 
2 0 0 0 3 0 1 515 
4 0 0 0 3 0 1 517 
9 0 0 0 2 0 1 517 
9 0 0 0 4 0 1 518 
0 0 0 0 0 0 1 543 
0 0 0 0 0 0 2 520 521 
9 1 0 0 0 0 1 522 
6 4 0 0 0 0 1 522 
4 3 0 0 0 0 1 523 
9 2 0 0 0 0 2 527 524 
6 3 0 0 0 0 1 525 
10 3 0 0 0 0 3 529 526 535 
1 2 0 0 0 0 1 528 
8 3 0 0 0 0 1 528 
1 3 0 0 0 0 1 530 
9 1 0 0 0 0 1 530 
0 0 0 0 0 0 1 543 
0 0 0 0 0 0 1 532 
6 0 0 1 0 0 2 536 533 
2 0 0 2 0 0 1 534 
5 0 0 2 0 0 1 535 
7 0 0 3 0 0 2 540 537 
9 0 0 2 0 0 2 541 537 
1 0 0 2 0 0 1 538 
9 0 0 3 0 0 1 539 
5 0 0 4 0 0 1 542 
1 0 0 4 0 0 1 542 
8 0 0 2 0 0 1 542 
0 0 0 0 0 0 1 543 
0 0 0 0 0 0 0 
